3
Coordinates from ORCA-job opt E -981.614502119079
  C      -4.032149     -2.856111     -1.126067
  C      -2.704612     -3.157386     -1.076879
  C      -1.738166     -2.115961     -1.076746
3
Coordinates from ORCA-job opt E -981.614197297592
  C      -4.041881     -2.879943     -1.297734
  C      -2.713486     -3.177299     -1.257797
  C      -1.753819     -2.134530     -1.166198
3
Coordinates from ORCA-job opt E -981.613452086506
  C      -4.026613     -2.896571     -1.465384
  C      -2.695159     -3.177913     -1.481543
  C      -1.747651     -2.135726     -1.316262
